 C Ni 
 1.0000000000000000
    14.0815999999999999    0.0000000000000000    0.0000000000000000
     0.0000000000000000    7.4678961374673669    0.0000000000000000
     0.0000000000000000    0.0000000000000000   33.7339480687336817
   1  48
Selective dynamics
Cartesian
  2.6402999999999999  0.6223246781222803 18.7339480687336817   T   T   T
  8.8010000000000002  1.2446493562445615 17.4892987124891235   T   T   T
 12.3214000000000006  1.2446493562445615 17.4892987124891235   T   T   T
  1.7602000000000000  3.7339480687336826 17.4892987124891235   T   T   T
  5.2805999999999997  3.7339480687336826 17.4892987124891235   T   T   T
  8.8010000000000002  3.7339480687336826 17.4892987124891235   T   T   T
 12.3214000000000006  3.7339480687336826 17.4892987124891235   T   T   T
  1.7602000000000000  6.2232467812228052 17.4892987124891235   T   T   T
  5.2805999999999997  6.2232467812228052 17.4892987124891235   T   T   T
  8.8010000000000002  6.2232467812228052 17.4892987124891235   T   T   T
 12.3214000000000006  6.2232467812228052 17.4892987124891235   T   T   T
  0.0000000000000000  0.0000000000000000 18.7339480687336817   T   T   T
  3.5204000000000000  0.0000000000000000 18.7339480687336817   T   T   T
  7.0407999999999982  0.0000000000000000 18.7339480687336817   T   T   T
 10.5611999999999995  0.0000000000000000 18.7339480687336817   T   T   T
  0.0000000000000000  2.4892987124891222 18.7339480687336817   T   T   T
  3.5204000000000000  2.4892987124891222 18.7339480687336817   T   T   T
  7.0407999999999982  2.4892987124891222 18.7339480687336817   T   T   T
 10.5611999999999995  2.4892987124891222 18.7339480687336817   T   T   T
  0.0000000000000000  4.9785974249782443 18.7339480687336817   T   T   T
  3.5204000000000000  4.9785974249782443 18.7339480687336817   T   T   T
  7.0407999999999982  4.9785974249782443 18.7339480687336817   T   T   T
  5.2805999999999997  1.2446493562445615 17.4892987124891235   T   T   T
 10.5611999999999995  4.9785974249782443 18.7339480687336817   T   T   T
  1.7602000000000000  1.2446493562445615 15.0000000000000000   F   F   F
  7.0407999999999982  4.9785974249782443 16.2446493562445617   F   F   F
  5.2805999999999997  1.2446493562445615 15.0000000000000000   F   F   F
  8.8010000000000002  1.2446493562445615 15.0000000000000000   F   F   F
 12.3214000000000006  1.2446493562445615 15.0000000000000000   F   F   F
  1.7602000000000000  3.7339480687336826 15.0000000000000000   F   F   F
  5.2805999999999997  3.7339480687336826 15.0000000000000000   F   F   F
  8.8010000000000002  3.7339480687336826 15.0000000000000000   F   F   F
 12.3214000000000006  3.7339480687336826 15.0000000000000000   F   F   F
  1.7602000000000000  6.2232467812228052 15.0000000000000000   F   F   F
  5.2805999999999997  6.2232467812228052 15.0000000000000000   F   F   F
  8.8010000000000002  6.2232467812228052 15.0000000000000000   F   F   F
 12.3214000000000006  6.2232467812228052 15.0000000000000000   F   F   F
  0.0000000000000000  0.0000000000000000 16.2446493562445617   F   F   F
  3.5204000000000000  0.0000000000000000 16.2446493562445617   F   F   F
  7.0407999999999982  0.0000000000000000 16.2446493562445617   F   F   F
 10.5611999999999995  0.0000000000000000 16.2446493562445617   F   F   F
  0.0000000000000000  2.4892987124891222 16.2446493562445617   F   F   F
  3.5204000000000000  2.4892987124891222 16.2446493562445617   F   F   F
  7.0407999999999982  2.4892987124891222 16.2446493562445617   F   F   F
 10.5611999999999995  2.4892987124891222 16.2446493562445617   F   F   F
  0.0000000000000000  4.9785974249782443 16.2446493562445617   F   F   F
  3.5204000000000000  4.9785974249782443 16.2446493562445617   F   F   F
 10.5611999999999995  4.9785974249782443 16.2446493562445617   F   F   F
  1.7602000000000000  1.2446493562445615 17.4892987124891235   T   T   T
